! PBE0 D3BJ RIJK def2-TZVPP def2/JK
! TightSCF Grid3 FinalGrid5
! Opt Freq

%scf
        TolE    1e-6    # energy change between two cycles
        TolRMSP 1e-8    # RMS density change
        TolMaxP 1e-6    # maximum density change
end

%MaxCore 2000
%pal nprocs=4
end

* xyz 0 1
*
