! B97-3c defgrid2
! Opt TightSCF 

%MaxCore 2000
%pal nprocs=4
end

* xyz 0 1
