! DLPNO-CCSD(T) Extrapolate(3/4,aug-cc) aug-cc-pVQZ/C tightscf NormalPNO

%MaxCore 5760
%pal nprocs=6
end

* xyz 0 1
