%NProcShared=4
%mem=10000mb
#p PBE1PBE/Def2SVP SCF=Tight Int(Grid=Ultrafine) MaxDisk=100gb EmpiricalDispersion=GD3BJ SCRF=(solvent=water,CPCM,Read)

 title 

0 1
