%NProcShared=4
%mem=10000mb
#p PBE1PBE/Def2SVP SCF=Tight Int(Grid=Ultrafine) MaxDisk=100gb SCRF=(IEFPCM,Solvent=dimethylsulfoxide,Read)

 title 

0 1
C       -0.261316000     -0.779371000      1.355210000
S       -0.261316000      0.429373000      0.000000000
O        1.101810000      1.056769000      0.000000000
C       -0.261316000     -0.779371000     -1.355210000
H       -0.181197000     -0.196946000      2.282821000
H       -1.191350000     -1.366031000      1.356728000
H        0.623724000     -1.422862000      1.246177000
H       -1.191350000     -1.366031000     -1.356728000
H       -0.181197000     -0.196946000     -2.282821000
H        0.623724000     -1.422862000     -1.246177000

Surface=SAS
RSolv=0
ModifySph

H 1.20
C 1.85
S 2.49
O 2.29

