%chk=nbo-pbe0.chk
%NProcShared=12
%mem=10000mb

# PBE1PBE/Def2TZVP SCF=Tight Int(Grid=Ultrafine) MaxDisk=100gb NoSymm Pop=(NBORead) Density=Current

 Natural Bond Orbital Analysis at PBE0 level (NBO3)  

0 1

$nbo bndidx resonance $end


