%NProcShared=12
%mem=10000mb
# PBE1PBE/Def2SVP POpt=(Z-Matrix,MaxCyc=50) SCF=Tight Int(Grid=Ultrafine) MaxDisk=100gb EmpiricalDispersion=GD3BJ NoSymm

 title 

0 1
