%NProcShared=12
%mem=10000mb
# PBE1PBE/Def2SVP Opt=(MaxCyc=50,ModRedundant) SCF=Tight Int(Grid=Ultrafine) MaxDisk=100gb EmpiricalDispersion=GD3BJ NoSymm

 title 

0 1
