! B97-3c Grid5 NoFinalGrid
! Opt TightSCF 

%MaxCore 2000
%pal nprocs=4
end

* xyz 0 1
