! PBEh-3c defgrid2 NoUseSym
! Opt TightSCF 

%geom Scan
B 0 1 = start, end, number
end
end

%MaxCore 2000
%pal nprocs=6
end

* xyz 0 1
