! DLPNO-MP2 def2-TZVP(-f) def2-TZVP/C FrozenCore NoUseSym
! RIJCOSX def2/J
! TightOpt TightSCF SCFConvForced 

# consider at least GridX4 or preferably larger
%method
	IntaccX 3.34,4.01,4.67 # =GridX4, try 4.01,4.01,4.34 for large/diffuse basis sets
	GridX 1,1,3 # =GridX4, default GridXS2 1,1,2
end

%MaxCore 4200
%pal nprocs=6
end

* xyz 0 1
*
